(set-logic HORN)
(set-info :source |
  Benchmark: ../golem/build/RealCodeNested/originalcodeSortVarsZ3sceleton.c
  Generated by Korn 0.4 https://github.com/gernst/korn
|)


(declare-fun $main_sum2 (Int Int Int Int Int Int Int Int Int Int Int) Bool)
(declare-fun $main_inv1 (Int Int Int Int Int Int Int Int Int Int Int) Bool)
(declare-fun $main_if4 (Int Int Int Int Int Int Int Int Int Int Int Int Int Int Int Int Int Int Int Int Int Int) Bool)
(declare-fun __assert_fail (Int Int Int Int) Bool)
(declare-fun $__VERIFIER_assert_pre (Int) Bool)
(declare-fun $__VERIFIER_assert_if1 (Int Int) Bool)
(declare-fun $main_if2 (Int Int Int Int Int Int Int Int Int Int Int Int Int Int Int Int Int Int Int Int Int Int) Bool)
(declare-fun $main_inv2 (Int Int Int Int Int Int Int Int Int Int Int) Bool)
(declare-fun __VERIFIER_assert (Int) Bool)
(declare-fun $__assert_fail_pre (Int Int Int Int) Bool)
(declare-fun $main_if3 (Int Int Int Int Int Int Int Int Int Int Int Int Int Int Int Int Int Int Int Int Int Int) Bool)
(declare-fun $main_sum1 (Int Int Int Int Int Int Int Int Int Int Int) Bool)
(declare-fun $main_loop (Int Int Int Int Int Int Int Int Int Int Int Int Int Int Int Int Int Int Int Int Int Int) Bool)
(declare-fun $__VERIFIER_assert_ERROR (Int Int) Bool)

; label ERROR
(assert
  (forall ((cond!1 Int))
    (=> (and (not (not (= cond!1 0)))
             ($__VERIFIER_assert_pre cond!1))
        ($__VERIFIER_assert_ERROR cond!1 cond!1))))

; error
(assert
  (forall ((cond!1 Int) (cond!2 Int))
    (=> (and ($__VERIFIER_assert_ERROR cond!1 cond!2))
        false)))

; if else
(assert
  (forall ((cond!1 Int))
    (=> (and (not (not (not (= cond!1 0))))
             ($__VERIFIER_assert_pre cond!1))
        ($__VERIFIER_assert_if1 cond!1 cond!1))))

; post __VERIFIER_assert
(assert
  (forall ((cond!1 Int) (cond!3 Int))
    (=> (and ($__VERIFIER_assert_if1 cond!1 cond!3))
        (__VERIFIER_assert cond!1))))

; loop entry $main_inv1 (line 16)
(assert
  (forall ((h!14 Int) (todo_size!10 Int) (found!6 Int) (visiting!11 Int) (order_reset!5 Int) (v!8 Int) (num_vars!4 Int) (i!7 Int) (num!13 Int) (t!9 Int) (done!12 Int))
    (=> (and (= i!7 0)
             (= found!6 0)
             (= order_reset!5 0)
             (<= 50 num_vars!4)
             (<= num_vars!4 10000))
        ($main_inv1 num_vars!4 order_reset!5 found!6 i!7 v!8 t!9 todo_size!10 visiting!11 done!12 num!13 h!14))))

; loop term $main_sum1 (line 16)
(assert
  (forall ((i!18 Int) (v!19 Int) (h!25 Int) (todo_size!21 Int) (order_reset!16 Int) (t!20 Int) (num_vars!15 Int) (visiting!22 Int) (found!17 Int) (num!24 Int) (done!23 Int))
    (=> (and (not (< i!18 num_vars!15))
             ($main_inv1 num_vars!15 order_reset!16 found!17 i!18 v!19 t!20 todo_size!21 visiting!22 done!23 num!24 h!25))
        ($main_sum1 num_vars!15 order_reset!16 found!17 i!18 v!19 t!20 todo_size!21 visiting!22 done!23 num!24 h!25))))

; if then
(assert
  (forall ((i!18 Int) (v!19 Int) (h!25 Int) (todo_size!21 Int) (order_reset!16 Int) (t!20 Int) (num_vars!15 Int) (visiting!22 Int) (found!17 Int) (num!24 Int) (done!23 Int))
    (=> (and (= t!20 0)
             (<= 0 t!20)
             (<= num_vars!15 1)
             (= v!19 i!18)
             (< i!18 num_vars!15)
             ($main_inv1 num_vars!15 order_reset!16 found!17 i!18 v!19 t!20 todo_size!21 visiting!22 done!23 num!24 h!25))
        ($main_if2 num_vars!15 order_reset!16 found!17 i!18 v!19 t!20 todo_size!21 visiting!22 done!23 num!24 h!25 num_vars!15 order_reset!16 0 i!18 v!19 t!20 todo_size!21 visiting!22 done!23 num!24 h!25))))

; if else
(assert
  (forall ((i!18 Int) (v!19 Int) (h!25 Int) (todo_size!21 Int) (order_reset!16 Int) (t!20 Int) (num_vars!15 Int) (visiting!22 Int) (found!17 Int) (num!24 Int) (done!23 Int))
    (=> (and (not (= t!20 0))
             (<= 0 t!20)
             (<= num_vars!15 1)
             (= v!19 i!18)
             (< i!18 num_vars!15)
             ($main_inv1 num_vars!15 order_reset!16 found!17 i!18 v!19 t!20 todo_size!21 visiting!22 done!23 num!24 h!25))
        ($main_if2 num_vars!15 order_reset!16 found!17 i!18 v!19 t!20 todo_size!21 visiting!22 done!23 num!24 h!25 num_vars!15 order_reset!16 1 i!18 v!19 t!20 todo_size!21 visiting!22 done!23 num!24 h!25))))

; forwards $main_inv1 (line 16)
(assert
  (forall ((i!29 Int) (i!18 Int) (v!19 Int) (h!25 Int) (todo_size!21 Int) (t!31 Int) (todo_size!32 Int) (t!20 Int) (done!34 Int) (found!17 Int) (h!36 Int) (num_vars!26 Int) (num!24 Int) (done!23 Int) (found!28 Int) (order_reset!16 Int) (order_reset!27 Int) (num!35 Int) (v!30 Int) (num_vars!15 Int) (visiting!22 Int) (visiting!33 Int))
    (=> (and ($main_if2 num_vars!15 order_reset!16 found!17 i!18 v!19 t!20 todo_size!21 visiting!22 done!23 num!24 h!25 num_vars!26 order_reset!27 found!28 i!29 v!30 t!31 todo_size!32 visiting!33 done!34 num!35 h!36))
        ($main_inv1 num_vars!26 order_reset!27 found!28 (+ i!29 1) v!30 t!31 todo_size!32 visiting!33 done!34 num!35 h!36))))

; if else
(assert
  (forall ((num_vars!37 Int) (num!46 Int) (found!39 Int) (t!42 Int) (found!6 Int) (visiting!11 Int) (order_reset!5 Int) (v!8 Int) (order_reset!38 Int) (v!41 Int) (h!47 Int) (h!14 Int) (visiting!44 Int) (todo_size!43 Int) (todo_size!10 Int) (i!40 Int) (num_vars!4 Int) (i!7 Int) (num!13 Int) (done!45 Int) (t!9 Int) (done!12 Int))
    (=> (and (not (= found!39 0))
             ($main_sum1 num_vars!37 order_reset!38 found!39 i!40 v!41 t!42 todo_size!43 visiting!44 done!45 num!46 h!47))
        ($main_if3 num_vars!4 order_reset!5 found!6 i!7 v!8 t!9 todo_size!10 visiting!11 done!12 num!13 h!14 num_vars!37 order_reset!38 found!39 i!40 v!41 t!42 todo_size!43 visiting!44 done!45 num!46 h!47))))

; loop entry $main_inv2 (line 38)
(assert
  (forall ((num_vars!48 Int) (found!50 Int) (h!14 Int) (num!57 Int) (v!52 Int) (i!51 Int) (visiting!55 Int) (todo_size!54 Int) (todo_size!10 Int) (t!53 Int) (done!56 Int) (found!6 Int) (visiting!11 Int) (order_reset!5 Int) (v!8 Int) (num_vars!4 Int) (i!7 Int) (h!58 Int) (num!13 Int) (order_reset!49 Int) (t!9 Int) (done!12 Int))
    (=> (and (= done!56 0)
             (= visiting!55 0)
             (= todo_size!54 0)
             ($main_if3 num_vars!4 order_reset!5 found!6 i!7 v!8 t!9 todo_size!10 visiting!11 done!12 num!13 h!14 num_vars!48 order_reset!49 found!50 i!51 v!52 t!53 todo_size!54 visiting!55 done!56 num!57 h!58))
        ($main_inv2 num_vars!48 order_reset!49 found!50 0 v!52 t!53 todo_size!54 visiting!55 done!56 num!57 h!58))))

; loop term $main_sum2 (line 38)
(assert
  (forall ((h!69 Int) (i!62 Int) (v!63 Int) (num!68 Int) (todo_size!65 Int) (done!67 Int) (num_vars!59 Int) (order_reset!60 Int) (t!64 Int) (found!61 Int) (visiting!66 Int))
    (=> (and (not (< i!62 num_vars!59))
             ($main_inv2 num_vars!59 order_reset!60 found!61 i!62 v!63 t!64 todo_size!65 visiting!66 done!67 num!68 h!69))
        ($main_sum2 num_vars!59 order_reset!60 found!61 i!62 v!63 t!64 todo_size!65 visiting!66 done!67 num!68 h!69))))

; label loop
(assert
  (forall ((h!69 Int) (i!62 Int) (v!63 Int) (num!68 Int) (todo_size!65 Int) (done!67 Int) (num_vars!59 Int) (order_reset!60 Int) (t!64 Int) (found!61 Int) (visiting!66 Int))
    (=> (and (< i!62 num_vars!59)
             ($main_inv2 num_vars!59 order_reset!60 found!61 i!62 v!63 t!64 todo_size!65 visiting!66 done!67 num!68 h!69))
        ($main_loop num_vars!59 order_reset!60 found!61 i!62 v!63 t!64 todo_size!65 visiting!66 done!67 num!68 h!69 num_vars!59 order_reset!60 found!61 i!62 v!63 t!64 todo_size!65 visiting!66 done!67 num!68 h!69))))

; goto loop
(assert
  (forall ((h!69 Int) (v!63 Int) (v!74 Int) (h!80 Int) (num!68 Int) (visiting!77 Int) (todo_size!65 Int) (found!72 Int) (i!73 Int) (done!67 Int) (num_vars!59 Int) (order_reset!60 Int) (todo_size!76 Int) (done!78 Int) (i!62 Int) (t!64 Int) (found!61 Int) (visiting!66 Int) (num_vars!70 Int) (num!79 Int) (order_reset!71 Int) (t!75 Int))
    (=> (and (= h!80 0)
             ($main_loop num_vars!59 order_reset!60 found!61 i!62 v!63 t!64 todo_size!65 visiting!66 done!67 num!68 h!69 num_vars!70 order_reset!71 found!72 i!73 v!74 t!75 todo_size!76 visiting!77 done!78 num!79 h!80))
        ($main_loop num_vars!59 order_reset!60 found!61 i!62 v!63 t!64 todo_size!65 visiting!66 done!67 num!68 h!69 num_vars!70 (+ order_reset!71 1) found!72 (+ i!73 1) v!74 t!75 todo_size!76 visiting!77 done!78 num!79 h!80))))

; if else
(assert
  (forall ((h!69 Int) (v!63 Int) (v!74 Int) (h!80 Int) (num!68 Int) (visiting!77 Int) (todo_size!65 Int) (found!72 Int) (i!73 Int) (done!67 Int) (num_vars!59 Int) (order_reset!60 Int) (todo_size!76 Int) (done!78 Int) (i!62 Int) (t!64 Int) (found!61 Int) (visiting!66 Int) (num_vars!70 Int) (num!79 Int) (order_reset!71 Int) (t!75 Int))
    (=> (and (not (= h!80 0))
             ($main_loop num_vars!59 order_reset!60 found!61 i!62 v!63 t!64 todo_size!65 visiting!66 done!67 num!68 h!69 num_vars!70 order_reset!71 found!72 i!73 v!74 t!75 todo_size!76 visiting!77 done!78 num!79 h!80))
        ($main_if4 num_vars!59 order_reset!60 found!61 i!62 v!63 t!64 todo_size!65 visiting!66 done!67 num!68 h!69 num_vars!70 order_reset!71 found!72 i!73 v!74 t!75 todo_size!76 visiting!77 done!78 num!79 h!80))))

; forwards $main_inv2 (line 38)
(assert
  (forall ((h!69 Int) (i!62 Int) (order_reset!82 Int) (v!63 Int) (v!85 Int) (h!91 Int) (num!68 Int) (t!86 Int) (todo_size!87 Int) (num_vars!59 Int) (done!89 Int) (order_reset!60 Int) (t!64 Int) (found!61 Int) (visiting!66 Int) (todo_size!65 Int) (num!90 Int) (found!83 Int) (done!67 Int) (num_vars!81 Int) (visiting!88 Int) (i!84 Int))
    (=> (and ($main_if4 num_vars!59 order_reset!60 found!61 i!62 v!63 t!64 todo_size!65 visiting!66 done!67 num!68 h!69 num_vars!81 order_reset!82 found!83 i!84 v!85 t!86 todo_size!87 visiting!88 done!89 num!90 h!91))
        ($main_inv2 num_vars!81 order_reset!82 found!83 (+ i!84 1) v!85 t!86 1 visiting!88 done!89 num!90 h!91))))

; VERIFIER_assert (< order_reset!93 10)
(assert
  (forall ((t!97 Int) (done!100 Int) (num_vars!92 Int) (h!102 Int) (i!95 Int) (order_reset!93 Int) (visiting!99 Int) (num!101 Int) (found!94 Int) (v!96 Int) (todo_size!98 Int))
    (=> (and (not (< order_reset!93 10))
             ($main_sum2 num_vars!92 order_reset!93 found!94 i!95 v!96 t!97 todo_size!98 visiting!99 done!100 num!101 h!102))
        false)))

(check-sat)
